(set-info :smt-lib-version 2.6)
(set-logic UFDT)
(set-info :source |
Generated by: Johannes Schoisswohl
Generated on: 2020-12-21
Application: Replacing structural induction by a conservative extension
Target solver: CVC4, Vampire, Z3
Generator: https://github.com/joe-hauns/msc-automating-induction-via-reflection
Publications: Automated Induction by Reflection ( https://doi.org/10.34726/hss.2020.75342 )
|)
(set-logic :category "crafted")
(declare-datatypes ((nat 0) (lst 0)) (((zero) (s (s0 nat))) ((nil) (cons (cons0 nat) (cons1 lst)))))
(declare-fun app (lst lst) lst)
(declare-fun pref (lst lst) Bool)
(assert (forall ((x lst)) (pref nil x)))
(assert (forall ((a nat) (x lst)) (not (pref (cons a x) nil))))
(assert (forall ((a nat) (b nat) (x lst) (y lst)) (= (pref (cons a x) (cons b y)) (and (= a b) (pref x y)))))
(assert (forall ((r lst)) (= (app nil r) r)))
(assert (forall ((a nat) (l lst) (r lst)) (= (app (cons a l) r) (cons a (app l r)))))
(assert (not (forall ((x lst) (y lst)) (pref x (app x y)))))
(check-sat)
